100 2539

33 39
70 84
22 26
40 48
80 96
77 91
44 52
60 72
55 65
10 12
77 91
44 52
90 108
66 78
90 108
40 48
10 12
22 26
50 60
40 48
10 12
44 52
70 84
50 60
11 13
80 96
22 26
80 96
88 104
80 96
44 52
77 91
90 108
20 24
44 52
50 60
88 104
80 96
44 52
10 12
10 12
99 117
30 36
70 84
77 91
22 26
99 117
11 13
44 52
50 60
90 108
88 104
33 39
33 39
80 96
88 104
50 60
50 60
30 36
22 26
60 72
90 108
80 96
33 39
90 108
10 12
22 26
33 39
20 24
44 52
60 72
70 84
55 65
40 48
11 13
20 24
10 12
70 84
20 24
11 13
30 36
70 84
88 104
10 12
20 24
88 104
55 65
30 36
66 78
66 78
99 117
40 48
77 91
20 24
66 78
60 72
11 13
66 78
10 12
80 96
